\Problem name: last.lp

Minimize
 obj: x1 + x2 + x3 + x4 + x5 + x6 + x7 + x8 + x9 + x10 + x11 + x12 + x13 + x14
 + x15 + x16 + x17 + x18 + x19 + x20 + x21 + x22 + x23 + x24 + x25 + x26 + x27
 + x28 + x29 + x30 + x31 + x32 + x33 + x34 + x35 + x36 + x37 + x38 + x39 + x40
 + x41 + x42 + x43 + x44 + x45 + x46 + x47 + x48 + x49 + x50 + x51 + x52 + x53
 + x54 + x55 + x56 + x57 + x58 + x59 + x60 + x61 + x62 + x63 + x64 + x65 + x66
 + x67 + x68 + x69 + x70 + x71 + x72 + x73 + x74 + x75 + x76 + x77 + x78 + x79
 + x80 + x81 + x82 + x83 + x84 + x85 + x86 + x87 + x88 + x89 + x90 + x91 + x92
 + x93 + x94 + x95 + x96 + x97 + x98 + x99 + x100 + 100000 x101 + 100000 x102
 + 100000 x103 + 100000 x104 + 100000 x105 + 100000 x106 + 100000 x107
 + 100000 x108 + 100000 x109 + 100000 x110 + 100000 x111 + 100000 x112
 + 100000 x113 + 100000 x114 + 100000 x115 + 100000 x116 + 100000 x117
 + 100000 x118 + 100000 x119 + 100000 x120 + 100000 x121 + 100000 x122
 + 100000 x123 + 100000 x124 + 100000 x125 + 100000 x126 + 100000 x127
 + 100000 x128 + 100000 x129 + 100000 x130 + 100000 x131 + 100000 x132
 + 100000 x133 + 100000 x134 + 100000 x135 + 100000 x136 + 100000 x137
 + 100000 x138 + 100000 x139 + 100000 x140 + 100000 x141 + 100000 x142
 + 100000 x143 + 100000 x144 + 100000 x145 + 100000 x146 + 100000 x147
 + 100000 x148 + 100000 x149 + 100000 x150 + 100000 x151 + 100000 x152
 + 100000 x153 + 100000 x154 + 100000 x155 + 100000 x156 + 100000 x157
 + 100000 x158 + 100000 x159 + 100000 x160 + 100000 x161 + 100000 x162
 + 100000 x163 + 100000 x164 + 100000 x165 + 100000 x166 + 100000 x167
 + 100000 x168 + 100000 x169 + 100000 x170 + 100000 x171 + 100000 x172
 + 100000 x173 + 100000 x174 + 100000 x175 + 100000 x176 + 100000 x177
 + 100000 x178 + 100000 x179 + 100000 x180 + 100000 x181 + 100000 x182
 + 100000 x183 + 100000 x184 + 100000 x185 + 100000 x186 + 100000 x187
 + 100000 x188 + 100000 x189 + 100000 x190 + 100000 x191 + 100000 x192
 + 100000 x193 + 100000 x194 + 100000 x195 + 100000 x196 + 100000 x197
 + 100000 x198 + 100000 x199 + 100000 x200 + x201 + x202 + x203 + x204 + x205
 + x206 + x207 + x208 + x209 + x210 + x211 + x212 + x213 + x214 + x215 + x216
 + x217 + x218 + x219 + x220 + x221 + x222 + x223 + x224 + x225 + x226 + x227
 + x228 + x229 + x230 + x231 + x232 + x233 + x234 + x235 + x236 + x237 + x238
 + x239 + x240 + x241 + x242 + x243 + x244 + x245 + x246 + x247 + x248 + x249
 + x250 + x251 + x252 + x253 + x254 + x255 + x256 + x257 + x258 + x259 + x260
 + x261 + x262 + x263 + x264 + x265 + x266 + x267 + x268 + x269 + x270 + x271
 + x272 + x273 + x274 + x275 + x276 + x277 + x278 + x279 + x280 + x281 + x282
 + x283 + x284 + x285 + x286 + x287 + x288 + x289 + x290 + x291 + x292 + x293
 + x294 + x295 + x296 + x297 + x298 + x299 + x300 + x301 + x302 + x303 + x304
 + x305 + x306 + x307 + x308 + x309 + x310 + x311 + x312 + x313 + x314 + x315
 + x316 + x317 + x318 + x319 + x320 + x321 + x322 + x323 + x324 + x325 + x326
 + x327 + x328 + x329 + x330 + x331 + x332 + x333 + x334 + x335 + x336 + x337
 + x338 + x339 + x340 + x341 + x342 + x343 + x344 + x345 + x346 + x347 + x348
 + x349 + x350 + x351 + x352 + x353 + x354 + x355 + x356 + x357 + x358 + x359
 + x360 + x361 + x362 + x363 + x364 + x365 + x366 + x367 + x368 + x369 + x370
 + x371 + x372 + x373 + x374 + x375 + x376 + x377 + x378 + x379 + x380 + x381
 + x382 + x383 + x384 + x385 + x386 + x387 + x388 + x389 + x390 + x391 + x392
 + x393 + x394 + x395 + x396 + x397 + x398 + x399 + x400 + x401 + x402 + x403
 + x404 + x405 + x406 + x407 + x408 + x409
Subject To
 c1:   x1 + x101 + x279  = 54
 c2:   x2 + x102 + x280  = 11
 c3:   x3 + x103 + x281  = 43
 c4:   x4 + x104 + x278 + x315 + x320 + x342 + x370  = 83
 c5:   x5 + x105 + x277 + x312 + x337  = 12
 c6:   x6 + x106 + x276  = 22
 c7:   x7 + x107 + x272 + x275 + x325  = 89
 c8:   x8 + x108 + x271  = 27
 c9:   x9 + x109 + x268 + x270 + x352  = 50
 c10:  x10 + x110 + x267 + x366  = 41
 c11:  x11 + x111 + x263 + x302 + x330 + x383  = 45
 c12:  x12 + x112 + x265 + x368  = 5
 c13:  x13 + x113 + x266  = 8
 c14:  x14 + x114 + x261 + x262 + x299 + x308 + x310 + x338 + x384 + x397
       + x408 + x409  = 67
 c15:  x15 + x115 + x260 + x274 + x306 + x309  = 53
 c16:  x16 + x116 + x255 + x256 + x257 + x259 + x354 + x378  = 65
 c17:  x17 + x117 + x252 + x254 + x292 + x319 + x375 + x376 + x407  = 39
 c18:  x17 + x18 + x118 + x318 + x406  = 22
 c19:  x18 + x19 + x119 + x252  = 6
 c20:  x19 + x20 + x120 + x253 + x406 + x407  = 36
 c21:  x20 + x21 + x121 + x251 + x375  = 37
 c22:  x16 + x22 + x122  = 2
 c23:  x21 + x22 + x23 + x123 + x250 + x349 + x360 + x363 + x371 + x378  = 26
 c24:  x23 + x24 + x124 + x249 + x250 + x251 + x253 + x347 + x355 + x367 + x381
       + x393 + x394  = 46
 c25:  x24 + x25 + x125 + x257 + x361 + x372 + x400 + x402  = 35
 c26:  x25 + x26 + x126 + x243 + x245 + x258 + x259 + x321 + x336 + x373 + x379
       + x380 + x382 + x385 + x386 + x387 + x390 + x396 + x405  = 91
 c27:  x26 + x27 + x127 + x244 + x255 + x316 + x324 + x346  = 5
 c28:  x27 + x28 + x128 + x243 + x290 + x295 + x331 + x335 + x403  = 25
 c29:  x28 + x29 + x129 + x241 + x258 + x317 + x344 + x395  = 24
 c30:  x29 + x30 + x130 + x239 + x254 + x291 + x307 + x332 + x389  = 35
 c31:  x30 + x31 + x131 + x241 + x248 + x285 + x300 + x326 + x392 + x404  = 45
 c32:  x31 + x32 + x132 + x345 + x374  = 21
 c33:  x32 + x33 + x133 + x239 + x240 + x242 + x294 + x314  = 66
 c34:  x33 + x34 + x134 + x244 + x245 + x284 + x289 + x322 + x333 + x377 + x401
        = 50
 c35:  x34 + x35 + x135 + x232 + x234 + x237 + x323 + x346 + x348 + x395  = 43
 c36:  x35 + x36 + x136 + x246 + x269 + x273 + x293 + x331 + x391  = 10
 c37:  x36 + x37 + x137 + x232 + x235 + x237 + x264 + x286 + x291 + x292 + x316
       + x317 + x335 + x392  = 42
 c38:  x37 + x38 + x138 + x235 + x247 + x282 + x301 + x321 + x329 + x334 + x380
        = 24
 c39:  x38 + x39 + x139 + x269 + x290 + x339 + x379 + x382  = 4
 c40:  x39 + x40 + x140 + x230 + x231 + x238 + x289 + x340 + x373  = 24
 c41:  x40 + x41 + x141 + x234 + x333  = 10
 c42:  x41 + x42 + x142 + x227 + x231 + x296 + x298 + x301 + x305 + x369 + x371
       + x381 + x401  = 12
 c43:  x42 + x43 + x143 + x230 + x233 + x297 + x324 + x327 + x363 + x388 + x393
        = 10
 c44:  x43 + x44 + x144 + x219 + x221 + x223 + x240 + x288 + x351 + x353 + x359
       + x404  = 35
 c45:  x44 + x45 + x145 + x226 + x227 + x238 + x249 + x283 + x326 + x328  = 42
 c46:  x45 + x46 + x146 + x228 + x348  = 17
 c47:  x15 + x46 + x47 + x147 + x344 + x403  = 47
 c48:  x47 + x48 + x148 + x219 + x242 + x264 + x273 + x309 + x357 + x362  = 37
 c49:  x48 + x49 + x149 + x223 + x229 + x295 + x304 + x307 + x313 + x356  = 27
 c50:  x14 + x50 + x150  = 39
 c51:  x49 + x50 + x51 + x151 + x343 + x397  = 43
 c52:  x51 + x52 + x152 + x215 + x334 + x340 + x341 + x365 + x367 + x390 + x405
        = 95
 c53:  x52 + x53 + x153 + x236 + x350 + x355 + x372  = 29
 c54:  x53 + x54 + x154 + x215 + x338 + x364 + x377 + x396 + x398 + x399  = 46
 c55:  x54 + x55 + x155 + x287 + x358  = 2
 c56:  x55 + x56 + x156 + x214 + x350  = 21
 c57:  x56 + x57 + x157 + x345 + x398  = 30
 c58:  x56 + x57 + x58 + x158 + x211 + x224 + x300 + x313 + x328 + x341 + x358
       + x359 + x376  = 95
 c59:  x57 + x58 + x59 + x159 + x211 + x214 + x311 + x322 + x343 + x351 + x356
       + x357 + x358 + x362 + x364 + x365  = 97
 c60:  x58 + x60 + x160 + x354 + x391 + x399  = 42
 c61:  x55 + x59 + x60 + x61 + x161 + x213 + x224 + x287 + x288 + x297 + x304
       + x305 + x364 + x399 + x409  = 22
 c62:  x59 + x60 + x62 + x162 + x303 + x311 + x318 + x319 + x374 + x384 + x386
       + x389 + x398  = 12
 c63:  x54 + x61 + x62 + x63 + x163 + x207 + x210 + x212 + x225 + x228 + x236
       + x283 + x341 + x365 + x387 + x408  = 42
 c64:  x61 + x62 + x63 + x64 + x164 + x211 + x222 + x296 + x298 + x310 + x336
       + x361 + x369  = 31
 c65:  x63 + x64 + x65 + x165 + x208 + x209 + x285 + x327 + x339 + x343 + x350
       + x385  = 42
 c66:  x52 + x53 + x64 + x65 + x66 + x166 + x205 + x216 + x217 + x220 + x224
       + x282 + x323 + x356 + x400  = 42
 c67:  x65 + x67 + x167 + x206 + x213 + x220 + x222 + x298 + x313 + x329 + x357
       + x402  = 8
 c68:  x66 + x67 + x68 + x168 + x216 + x296 + x327 + x329 + x362 + x394  = 1
 c69:  x50 + x51 + x66 + x67 + x68 + x69 + x169 + x203 + x205 + x210 + x215
       + x293 + x303 + x314 + x328 + x353 + x388  = 100
 c70:  x68 + x69 + x70 + x170 + x201 + x202 + x205 + x206 + x207 + x208 + x209
       + x212 + x218 + x222 + x228 + x229 + x256 + x262 + x283 + x297 + x303
       + x305 + x311 + x314 + x323 + x332 + x359  = 98
 c71:  x11 + x71 + x171  = 22
 c72:  x12 + x13 + x47 + x48 + x71 + x72 + x172 + x225 + x233 + x299 + x322
       + x400  = 31
 c73:  x49 + x69 + x70 + x71 + x72 + x73 + x173 + x204 + x207 + x210 + x216
       + x217 + x218 + x226 + x285 + x347 + x349 + x374 + x383 + x391 + x402
        = 40
 c74:  x10 + x46 + x70 + x71 + x72 + x73 + x74 + x174 + x201 + x208 + x266
       + x294 + x302 + x340 + x345 + x389 + x394  = 78
 c75:  x44 + x72 + x75 + x175 + x284 + x286 + x306 + x360 + x361 + x387  = 4
 c76:  x45 + x70 + x75 + x76 + x176 + x206 + x221 + x229 + x247 + x265 + x267
       + x300 + x334 + x336  = 20
 c77:  x9 + x41 + x43 + x75 + x76 + x77 + x177  = 39
 c78:  x40 + x42 + x69 + x75 + x76 + x77 + x78 + x178 + x217 + x226 + x236
       + x274 + x282 + x318 + x319 + x330 + x348 + x352 + x360 + x372 + x396
        = 36
 c79:  x8 + x39 + x73 + x75 + x76 + x77 + x78 + x79 + x179 + x203 + x225 + x233
       + x242 + x268 + x353 + x355 + x390  = 35
 c80:  x73 + x74 + x76 + x77 + x78 + x79 + x80 + x180 + x201 + x202 + x209
       + x226 + x240 + x261 + x284 + x286 + x287 + x288 + x294 + x307 + x347
       + x369 + x376 + x401 + x405  = 48
 c81:  x38 + x73 + x74 + x77 + x78 + x79 + x80 + x81 + x181 + x202 + x203
       + x212 + x214 + x218 + x231 + x248 + x260 + x271 + x295 + x332 + x349
       + x353 + x367 + x386 + x388  = 35
 c82:  x74 + x78 + x79 + x80 + x81 + x82 + x182 + x201 + x202 + x203 + x204
       + x208 + x210 + x213 + x214 + x216 + x217 + x218 + x220 + x221 + x223
       + x233 + x234 + x236 + x256 + x284 + x286 + x287 + x289 + x301 + x304
       + x306 + x326 + x333 + x351 + x354 + x388 + x403  = 83
 c83:  x74 + x78 + x79 + x83 + x183 + x204 + x206 + x213 + x218 + x225 + x230
       + x274 + x293 + x294 + x308 + x339 + x344 + x404  = 12
 c84:  x6 + x7 + x36 + x67 + x68 + x79 + x83 + x84 + x184  = 37
 c85:  x34 + x35 + x37 + x83 + x84 + x85 + x185 + x246 + x248 + x304 + x308
       + x324 + x325  = 35
 c86:  x32 + x33 + x77 + x83 + x84 + x85 + x86 + x186 + x246 + x247 + x248
       + x273 + x275 + x351 + x392  = 41
 c87:  x66 + x74 + x80 + x81 + x82 + x83 + x84 + x85 + x86 + x87 + x187 + x203
       + x207 + x209 + x220 + x221 + x222 + x225 + x227 + x229 + x238 + x247
       + x248 + x263 + x288 + x291 + x366 + x368 + x369 + x373 + x381 + x393
        = 44
 c88:  x31 + x83 + x84 + x85 + x86 + x87 + x88 + x188 + x232 + x246 + x247
       + x249 + x299 + x321 + x339 + x382 + x385  = 21
 c89:  x65 + x80 + x81 + x82 + x83 + x84 + x85 + x86 + x87 + x88 + x89 + x189
       + x202 + x204 + x205 + x209 + x217 + x219 + x246 + x260 + x261 + x264
       + x269 + x270 + x272 + x331 + x332 + x335 + x346 + x347 + x360 + x363
       + x368 + x377 + x395  = 48
 c90:  x80 + x81 + x82 + x84 + x85 + x86 + x87 + x88 + x89 + x90 + x190 + x201
       + x212 + x219 + x237 + x260 + x263 + x282 + x290 + x293 + x303 + x316
       + x317 + x349 + x366 + x371 + x377 + x379 + x380 + x385  = 48
 c91:  x5 + x83 + x84 + x85 + x86 + x87 + x88 + x91 + x191  = 1
 c92:  x4 + x27 + x29 + x64 + x85 + x86 + x87 + x88 + x91 + x92 + x192  = 9
 c93:  x26 + x28 + x30 + x72 + x76 + x85 + x86 + x87 + x88 + x91 + x92 + x93
       + x193 + x244 + x245 + x246 + x270 + x292 + x308 + x315 + x330 + x337
       + x370  = 45
 c94:  x63 + x80 + x86 + x87 + x88 + x91 + x92 + x93 + x94 + x194 + x204 + x212
       + x213 + x221 + x223 + x238 + x239 + x261 + x276 + x311 + x312 + x320
        = 23
 c95:  x25 + x61 + x62 + x80 + x81 + x86 + x87 + x88 + x91 + x92 + x93 + x94
       + x95 + x195 + x204 + x220 + x227 + x235 + x258 + x264 + x273 + x276
       + x310 + x342 + x408  = 45
 c96:  x24 + x84 + x86 + x87 + x88 + x91 + x92 + x93 + x94 + x95 + x96 + x196
       + x204 + x207 + x235 + x256 + x384 + x386 + x409  = 5
 c97:  x1 + x60 + x71 + x79 + x85 + x87 + x88 + x91 + x92 + x93 + x94 + x95
       + x96 + x97 + x197  = 4
 c98:  x2 + x3 + x87 + x88 + x91 + x92 + x93 + x94 + x95 + x96 + x97 + x98
       + x198  = 36
 c99:  x22 + x23 + x43 + x75 + x87 + x88 + x91 + x92 + x93 + x94 + x95 + x96
       + x97 + x98 + x99 + x199 + x368 + x370  = 10
 c100: x30 + x42 + x49 + x87 + x88 + x91 + x92 + x93 + x94 + x95 + x96 + x97
       + x98 + x99 + x100 + x200 + x202 + x232 + x241 + x265 + x286 + x293
       + x299 + x301 + x302 + x312 + x315  = 32
Bounds
 0 <= x1 <= 4
 0 <= x2 <= 11
 0 <= x3 <= 36
 0 <= x4 <= 9
 0 <= x5 <= 1
 0 <= x6 <= 22
 0 <= x7 <= 37
 0 <= x8 <= 27
 0 <= x9 <= 39
 0 <= x10 <= 41
 0 <= x11 <= 22
 0 <= x12 <= 5
 0 <= x13 <= 8
 0 <= x14 <= 39
 0 <= x15 <= 47
 0 <= x16 <= 2
 0 <= x17 <= 22
 0 <= x18 <= 6
 0 <= x19 <= 6
 0 <= x20 <= 36
 0 <= x21 <= 26
 0 <= x22 <= 2
 0 <= x23 <= 10
 0 <= x24 <= 5
 0 <= x25 <= 35
 0 <= x26 <= 5
 0 <= x27 <= 5
 0 <= x28 <= 24
 0 <= x29 <= 9
 0 <= x30 <= 32
 0 <= x31 <= 21
 0 <= x32 <= 21
 0 <= x33 <= 41
 0 <= x34 <= 35
 0 <= x35 <= 10
 0 <= x36 <= 10
 0 <= x37 <= 24
 0 <= x38 <= 4
 0 <= x39 <= 4
 0 <= x40 <= 10
 0 <= x41 <= 10
 0 <= x42 <= 10
 0 <= x43 <= 10
 0 <= x44 <= 4
 0 <= x45 <= 17
 0 <= x46 <= 17
 0 <= x47 <= 31
 0 <= x48 <= 27
 0 <= x49 <= 27
 0 <= x50 <= 39
 0 <= x51 <= 43
 0 <= x52 <= 29
 0 <= x53 <= 29
 0 <= x54 <= 2
 0 <= x55 <= 2
 0 <= x56 <= 21
 0 <= x57 <= 30
 0 <= x58 <= 42
 0 <= x59 <= 12
 0 <= x60 <= 4
 0 <= x61 <= 22
 0 <= x62 <= 12
 0 <= x63 <= 23
 0 <= x64 <= 9
 0 <= x65 <= 8
 0 <= x66 <= 1
 0 <= x67 <= 1
 0 <= x68 <= 1
 0 <= x69 <= 36
 0 <= x70 <= 20
 0 <= x71 <= 4
 0 <= x72 <= 4
 0 <= x73 <= 35
 0 <= x74 <= 12
 0 <= x75 <= 4
 0 <= x76 <= 20
 0 <= x77 <= 35
 0 <= x78 <= 12
 0 <= x79 <= 4
 0 <= x80 <= 23
 0 <= x81 <= 35
 0 <= x82 <= 44
 0 <= x83 <= 1
 0 <= x84 <= 1
 0 <= x85 <= 1
 0 <= x86 <= 1
 0 <= x87 <= 1
 0 <= x88 <= 1
 0 <= x89 <= 48
 0 <= x90 <= 48
 0 <= x91 <= 1
 0 <= x92 <= 4
 0 <= x93 <= 4
 0 <= x94 <= 4
 0 <= x95 <= 4
 0 <= x96 <= 4
 0 <= x97 <= 4
 0 <= x98 <= 10
 0 <= x99 <= 10
 0 <= x100 <= 32
 0 <= x201 <= 48
 0 <= x202 <= 32
 0 <= x203 <= 35
 0 <= x204 <= 5
 0 <= x205 <= 42
 0 <= x206 <= 8
 0 <= x207 <= 5
 0 <= x208 <= 42
 0 <= x209 <= 42
 0 <= x210 <= 40
 0 <= x211 <= 31
 0 <= x212 <= 23
 0 <= x213 <= 8
 0 <= x214 <= 21
 0 <= x215 <= 46
 0 <= x216 <= 1
 0 <= x217 <= 36
 0 <= x218 <= 12
 0 <= x219 <= 35
 0 <= x220 <= 8
 0 <= x221 <= 20
 0 <= x222 <= 8
 0 <= x223 <= 23
 0 <= x224 <= 22
 0 <= x225 <= 12
 0 <= x226 <= 36
 0 <= x227 <= 12
 0 <= x228 <= 17
 0 <= x229 <= 20
 0 <= x230 <= 10
 0 <= x231 <= 12
 0 <= x232 <= 21
 0 <= x233 <= 10
 0 <= x234 <= 10
 0 <= x235 <= 5
 0 <= x236 <= 29
 0 <= x237 <= 42
 0 <= x238 <= 23
 0 <= x239 <= 23
 0 <= x240 <= 35
 0 <= x241 <= 24
 0 <= x242 <= 35
 0 <= x243 <= 25
 0 <= x244 <= 5
 0 <= x245 <= 45
 0 <= x246 <= 10
 0 <= x247 <= 20
 0 <= x248 <= 35
 0 <= x249 <= 21
 0 <= x250 <= 26
 0 <= x251 <= 37
 0 <= x252 <= 6
 0 <= x253 <= 36
 0 <= x254 <= 35
 0 <= x255 <= 5
 0 <= x256 <= 5
 0 <= x257 <= 35
 0 <= x258 <= 24
 0 <= x259 <= 65
 0 <= x260 <= 35
 0 <= x261 <= 23
 0 <= x262 <= 67
 0 <= x263 <= 44
 0 <= x264 <= 37
 0 <= x265 <= 5
 0 <= x266 <= 8
 0 <= x267 <= 20
 0 <= x268 <= 35
 0 <= x269 <= 4
 0 <= x270 <= 45
 0 <= x271 <= 27
 0 <= x272 <= 48
 0 <= x273 <= 10
 0 <= x274 <= 12
 0 <= x275 <= 41
 0 <= x276 <= 22
 0 <= x277 <= 12
 0 <= x278 <= 83
 0 <= x279 <= 54
 0 <= x280 <= 11
 0 <= x281 <= 43
 0 <= x282 <= 24
 0 <= x283 <= 42
 0 <= x284 <= 4
 0 <= x285 <= 40
 0 <= x286 <= 4
 0 <= x287 <= 2
 0 <= x288 <= 22
 0 <= x289 <= 24
 0 <= x290 <= 4
 0 <= x291 <= 35
 0 <= x292 <= 39
 0 <= x293 <= 10
 0 <= x294 <= 12
 0 <= x295 <= 25
 0 <= x296 <= 1
 0 <= x297 <= 10
 0 <= x298 <= 8
 0 <= x299 <= 21
 0 <= x300 <= 20
 0 <= x301 <= 12
 0 <= x302 <= 32
 0 <= x303 <= 12
 0 <= x304 <= 22
 0 <= x305 <= 12
 0 <= x306 <= 4
 0 <= x307 <= 27
 0 <= x308 <= 12
 0 <= x309 <= 37
 0 <= x310 <= 31
 0 <= x311 <= 12
 0 <= x312 <= 12
 0 <= x313 <= 8
 0 <= x314 <= 66
 0 <= x315 <= 32
 0 <= x316 <= 5
 0 <= x317 <= 24
 0 <= x318 <= 12
 0 <= x319 <= 12
 0 <= x320 <= 23
 0 <= x321 <= 21
 0 <= x322 <= 31
 0 <= x323 <= 42
 0 <= x324 <= 5
 0 <= x325 <= 35
 0 <= x326 <= 42
 0 <= x327 <= 1
 0 <= x328 <= 42
 0 <= x329 <= 1
 0 <= x330 <= 36
 0 <= x331 <= 10
 0 <= x332 <= 35
 0 <= x333 <= 10
 0 <= x334 <= 20
 0 <= x335 <= 25
 0 <= x336 <= 20
 0 <= x337 <= 12
 0 <= x338 <= 46
 0 <= x339 <= 4
 0 <= x340 <= 24
 0 <= x341 <= 42
 0 <= x342 <= 45
 0 <= x343 <= 42
 0 <= x344 <= 12
 0 <= x345 <= 21
 0 <= x346 <= 5
 0 <= x347 <= 40
 0 <= x348 <= 17
 0 <= x349 <= 26
 0 <= x350 <= 21
 0 <= x351 <= 35
 0 <= x352 <= 36
 0 <= x353 <= 35
 0 <= x354 <= 42
 0 <= x355 <= 29
 0 <= x356 <= 27
 0 <= x357 <= 8
 0 <= x358 <= 2
 0 <= x359 <= 35
 0 <= x360 <= 4
 0 <= x361 <= 4
 0 <= x362 <= 1
 0 <= x363 <= 10
 0 <= x364 <= 22
 0 <= x365 <= 42
 0 <= x366 <= 41
 0 <= x367 <= 35
 0 <= x368 <= 5
 0 <= x369 <= 12
 0 <= x370 <= 10
 0 <= x371 <= 12
 0 <= x372 <= 29
 0 <= x373 <= 24
 0 <= x374 <= 12
 0 <= x375 <= 37
 0 <= x376 <= 39
 0 <= x377 <= 46
 0 <= x378 <= 26
 0 <= x379 <= 4
 0 <= x380 <= 24
 0 <= x381 <= 12
 0 <= x382 <= 4
 0 <= x383 <= 40
 0 <= x384 <= 5
 0 <= x385 <= 21
 0 <= x386 <= 5
 0 <= x387 <= 4
 0 <= x388 <= 10
 0 <= x389 <= 12
 0 <= x390 <= 35
 0 <= x391 <= 10
 0 <= x392 <= 41
 0 <= x393 <= 10
 0 <= x394 <= 1
 0 <= x395 <= 24
 0 <= x396 <= 36
 0 <= x397 <= 43
 0 <= x398 <= 12
 0 <= x399 <= 22
 0 <= x400 <= 31
 0 <= x401 <= 12
 0 <= x402 <= 8
 0 <= x403 <= 25
 0 <= x404 <= 12
 0 <= x405 <= 48
 0 <= x406 <= 22
 0 <= x407 <= 36
 0 <= x408 <= 42
 0 <= x409 <= 5
End
